GLPSOL--GLPK LP/MIP Solver 5.0
Parameter(s) specified in the command line:
 --cpxlp --first inputs/new_no_tr/order/triang7_3_up_right_input.lp -o solutions/new_no_tr/triang7_3_up_right_input.lp
Reading problem data from 'inputs/new_no_tr/order/triang7_3_up_right_input.lp'...
inputs/new_no_tr/order/triang7_3_up_right_input.lp:4167: warning: lower bound of variable 'm_27_27' redefined
inputs/new_no_tr/order/triang7_3_up_right_input.lp:4167: warning: upper bound of variable 'm_27_27' redefined
3991 rows, 1597 columns, 11607 non-zeros
1597 integer variables, 1428 of which are binary
5735 lines were read
GLPK Integer Optimizer 5.0
3991 rows, 1597 columns, 11607 non-zeros
1597 integer variables, 1428 of which are binary
Preprocessing...
42 hidden packing inequaliti(es) were detected
84 hidden covering inequaliti(es) were detected
672 constraint coefficient(s) were reduced
3559 rows, 1342 columns, 10123 non-zeros
1342 integer variables, 1313 of which are binary
Scaling...
 A: min|aij| =  1.000e+00  max|aij| =  9.600e+01  ratio =  9.600e+01
GM: min|aij| =  4.347e-01  max|aij| =  2.300e+00  ratio =  5.292e+00
EQ: min|aij| =  1.890e-01  max|aij| =  1.000e+00  ratio =  5.292e+00
2N: min|aij| =  1.250e-01  max|aij| =  1.438e+00  ratio =  1.150e+01
Constructing initial basis...
Size of triangular part is 3223
Solving LP relaxation...
GLPK Simplex Optimizer 5.0
3559 rows, 1342 columns, 10123 non-zeros
      0: obj =   2.260000000e+02 inf =   2.835e+02 (161)
Perturbing LP to avoid stalling [210]...
    649: obj =   3.973997811e+02 inf =   1.000e-09 (0) 5
Removing LP perturbation [1647]...
*  1647: obj =   2.531063830e+02 inf =   2.207e-15 (0) 10
OPTIMAL LP SOLUTION FOUND
Integer optimization begins...
Long-step dual simplex will be used
+  1647: mip =     not found yet >=              -inf        (1; 0)
+ 23754: mip =     not found yet >=   2.750000000e+02        (52; 37)
+ 46065: mip =     not found yet >=   2.850000000e+02        (66; 76)
+ 68873: mip =     not found yet >=   2.950000000e+02        (104; 105)
+ 94358: mip =     not found yet >=   2.990000000e+02        (139; 133)
+117347: mip =     not found yet >=   3.040000000e+02        (145; 193)
+139815: mip =     not found yet >=   3.080000000e+02        (189; 274)
+164694: mip =     not found yet >=   3.080000000e+02        (241; 303)
+187245: mip =     not found yet >=   3.080000000e+02        (288; 358)
+210563: mip =     not found yet >=   3.090000000e+02        (314; 413)
+235881: mip =     not found yet >=   3.090000000e+02        (355; 449)
+260249: mip =     not found yet >=   3.110000000e+02        (398; 511)
Time used: 60.0 secs.  Memory used: 8.8 Mb.
+275595: >>>>>   3.570000000e+02 >=   3.120000000e+02  12.6% (494; 558)
+302906: mip =   3.570000000e+02 >=   3.120000000e+02  12.6% (418; 1022)
+329828: mip =   3.570000000e+02 >=   3.120000000e+02  12.6% (453; 1238)
+356327: mip =   3.570000000e+02 >=   3.120000000e+02  12.6% (478; 1496)
+382180: mip =   3.570000000e+02 >=   3.120000000e+02  12.6% (501; 1736)
+409105: mip =   3.570000000e+02 >=   3.120000000e+02  12.6% (534; 2014)
+434494: mip =   3.570000000e+02 >=   3.150000000e+02  11.8% (506; 2265)
+459023: mip =   3.570000000e+02 >=   3.150000000e+02  11.8% (545; 2398)
+484980: mip =   3.570000000e+02 >=   3.150000000e+02  11.8% (582; 2614)
+510239: mip =   3.570000000e+02 >=   3.150000000e+02  11.8% (626; 2841)
+535686: mip =   3.570000000e+02 >=   3.150000000e+02  11.8% (638; 3069)
+548094: >>>>>   3.510000000e+02 >=   3.180000000e+02   9.4% (679; 3177)
+548833: >>>>>   3.470000000e+02 >=   3.180000000e+02   8.4% (643; 3376)
+569343: >>>>>   3.380000000e+02 >=   3.180000000e+02   5.9% (784; 4000)
+569417: >>>>>   3.360000000e+02 >=   3.180000000e+02   5.4% (597; 4585)
Time used: 120.0 secs.  Memory used: 13.1 Mb.
+595088: mip =   3.360000000e+02 >=   3.180000000e+02   5.4% (638; 5727)
+621814: mip =   3.360000000e+02 >=   3.180000000e+02   5.4% (696; 6744)
+646066: mip =   3.360000000e+02 >=   3.180000000e+02   5.4% (818; 7718)
+673809: mip =   3.360000000e+02 >=   3.180000000e+02   5.4% (921; 8650)
+698449: mip =   3.360000000e+02 >=   3.180000000e+02   5.4% (978; 9818)
+723724: mip =   3.360000000e+02 >=   3.180000000e+02   5.4% (1088; 10759)
+746729: mip =   3.360000000e+02 >=   3.180000000e+02   5.4% (1229; 11782)
+771501: mip =   3.360000000e+02 >=   3.180000000e+02   5.4% (1295; 12827)
+797790: mip =   3.360000000e+02 >=   3.180000000e+02   5.4% (1423; 13670)
+822636: mip =   3.360000000e+02 >=   3.180000000e+02   5.4% (1507; 14660)
+847860: mip =   3.360000000e+02 >=   3.180000000e+02   5.4% (1573; 15671)
+872775: mip =   3.360000000e+02 >=   3.180000000e+02   5.4% (1677; 16624)
Time used: 180.0 secs.  Memory used: 24.5 Mb.
+898983: mip =   3.360000000e+02 >=   3.180000000e+02   5.4% (1808; 17398)
+921664: mip =   3.360000000e+02 >=   3.180000000e+02   5.4% (1930; 18410)
+944451: mip =   3.360000000e+02 >=   3.180000000e+02   5.4% (2092; 19437)
+969692: mip =   3.360000000e+02 >=   3.180000000e+02   5.4% (2159; 20433)
+996147: mip =   3.360000000e+02 >=   3.180000000e+02   5.4% (2236; 21372)
+1020623: mip =   3.360000000e+02 >=   3.180000000e+02   5.4% (2308; 22434)
+1043857: mip =   3.360000000e+02 >=   3.180000000e+02   5.4% (2433; 23387)
+1066110: mip =   3.360000000e+02 >=   3.180000000e+02   5.4% (2525; 24523)
+1090395: mip =   3.360000000e+02 >=   3.180000000e+02   5.4% (2597; 25548)
+1112136: mip =   3.360000000e+02 >=   3.180000000e+02   5.4% (2755; 26547)
+1136745: mip =   3.360000000e+02 >=   3.180000000e+02   5.4% (2797; 27647)
+1156205: mip =   3.360000000e+02 >=   3.180000000e+02   5.4% (2967; 28694)
Time used: 240.0 secs.  Memory used: 38.6 Mb.
+1180936: mip =   3.360000000e+02 >=   3.180000000e+02   5.4% (3043; 29734)
+1203142: mip =   3.360000000e+02 >=   3.180000000e+02   5.4% (3127; 30790)
+1226148: mip =   3.360000000e+02 >=   3.180000000e+02   5.4% (3207; 31863)
+1250169: mip =   3.360000000e+02 >=   3.180000000e+02   5.4% (3295; 32844)
+1274770: mip =   3.360000000e+02 >=   3.180000000e+02   5.4% (3391; 33799)
+1298257: mip =   3.360000000e+02 >=   3.180000000e+02   5.4% (3496; 34606)
+1321847: mip =   3.360000000e+02 >=   3.180000000e+02   5.4% (3565; 35616)
+1345593: mip =   3.360000000e+02 >=   3.180000000e+02   5.4% (3656; 36542)
+1369910: mip =   3.360000000e+02 >=   3.180000000e+02   5.4% (3736; 37493)
+1395470: mip =   3.360000000e+02 >=   3.180000000e+02   5.4% (3846; 38338)
+1419005: mip =   3.360000000e+02 >=   3.180000000e+02   5.4% (3913; 39327)
+1441680: mip =   3.360000000e+02 >=   3.180000000e+02   5.4% (4009; 40217)
Time used: 300.0 secs.  Memory used: 51.1 Mb.
+1464035: mip =   3.360000000e+02 >=   3.180000000e+02   5.4% (4100; 41174)
+1487392: mip =   3.360000000e+02 >=   3.180000000e+02   5.4% (4202; 42066)
+1512069: mip =   3.360000000e+02 >=   3.180000000e+02   5.4% (4235; 43033)
+1535202: mip =   3.360000000e+02 >=   3.180000000e+02   5.4% (4341; 43994)
+1558849: mip =   3.360000000e+02 >=   3.180000000e+02   5.4% (4450; 44852)
+1583261: mip =   3.360000000e+02 >=   3.180000000e+02   5.4% (4512; 45831)
+1607731: mip =   3.360000000e+02 >=   3.180000000e+02   5.4% (4610; 46692)
+1631896: mip =   3.360000000e+02 >=   3.180000000e+02   5.4% (4684; 47420)
+1654296: mip =   3.360000000e+02 >=   3.180000000e+02   5.4% (4775; 48306)
+1678298: mip =   3.360000000e+02 >=   3.180000000e+02   5.4% (4885; 49170)
+1701507: mip =   3.360000000e+02 >=   3.180000000e+02   5.4% (5010; 49922)
+1726068: mip =   3.360000000e+02 >=   3.180000000e+02   5.4% (5101; 50666)
Time used: 360.1 secs.  Memory used: 64.4 Mb.
+1748148: mip =   3.360000000e+02 >=   3.180000000e+02   5.4% (5164; 51622)
+1772313: mip =   3.360000000e+02 >=   3.180000000e+02   5.4% (5224; 52461)
+1795646: mip =   3.360000000e+02 >=   3.180000000e+02   5.4% (5307; 53286)
+1819004: mip =   3.360000000e+02 >=   3.180000000e+02   5.4% (5442; 53956)
+1841538: mip =   3.360000000e+02 >=   3.180000000e+02   5.4% (5547; 54819)
+1865147: mip =   3.360000000e+02 >=   3.180000000e+02   5.4% (5619; 55650)
+1888258: mip =   3.360000000e+02 >=   3.180000000e+02   5.4% (5696; 56535)
+1909982: mip =   3.360000000e+02 >=   3.180000000e+02   5.4% (5777; 57370)
+1931758: mip =   3.360000000e+02 >=   3.180000000e+02   5.4% (5875; 58217)
+1954665: mip =   3.360000000e+02 >=   3.180000000e+02   5.4% (5948; 59103)
+1978279: mip =   3.360000000e+02 >=   3.180000000e+02   5.4% (6043; 59884)
+2000772: mip =   3.360000000e+02 >=   3.180000000e+02   5.4% (6142; 60716)
Time used: 420.1 secs.  Memory used: 76.2 Mb.
+2022777: mip =   3.360000000e+02 >=   3.180000000e+02   5.4% (6244; 61519)
+2046224: mip =   3.360000000e+02 >=   3.180000000e+02   5.4% (6329; 62321)
+2069539: mip =   3.360000000e+02 >=   3.180000000e+02   5.4% (6432; 63031)
+2088081: mip =   3.360000000e+02 >=   3.180000000e+02   5.4% (6516; 63960)
+2108689: mip =   3.360000000e+02 >=   3.180000000e+02   5.4% (6639; 64706)
+2131134: mip =   3.360000000e+02 >=   3.180000000e+02   5.4% (6734; 65488)
+2152013: mip =   3.360000000e+02 >=   3.180000000e+02   5.4% (6821; 66320)
+2175461: mip =   3.360000000e+02 >=   3.180000000e+02   5.4% (6855; 67137)
+2194173: mip =   3.360000000e+02 >=   3.180000000e+02   5.4% (6979; 68029)
+2212210: mip =   3.360000000e+02 >=   3.180000000e+02   5.4% (7020; 69026)
+2229851: mip =   3.360000000e+02 >=   3.180000000e+02   5.4% (7118; 69920)
+2250821: mip =   3.360000000e+02 >=   3.180000000e+02   5.4% (7197; 70754)
Time used: 480.1 secs.  Memory used: 88.3 Mb.
+2270982: mip =   3.360000000e+02 >=   3.180000000e+02   5.4% (7283; 71546)
+2290308: mip =   3.360000000e+02 >=   3.180000000e+02   5.4% (7324; 72473)
+2311671: mip =   3.360000000e+02 >=   3.180000000e+02   5.4% (7396; 73311)
+2332039: mip =   3.360000000e+02 >=   3.180000000e+02   5.4% (7494; 74079)
+2353239: mip =   3.360000000e+02 >=   3.180000000e+02   5.4% (7591; 74827)
+2373698: mip =   3.360000000e+02 >=   3.180000000e+02   5.4% (7631; 75716)
+2394619: mip =   3.360000000e+02 >=   3.180000000e+02   5.4% (7660; 76584)
+2414801: mip =   3.360000000e+02 >=   3.180000000e+02   5.4% (7759; 77382)
+2432241: mip =   3.360000000e+02 >=   3.180000000e+02   5.4% (7837; 78264)
+2450064: mip =   3.360000000e+02 >=   3.180000000e+02   5.4% (7895; 79170)
+2468648: mip =   3.360000000e+02 >=   3.180000000e+02   5.4% (7967; 80053)
+2485227: mip =   3.360000000e+02 >=   3.180000000e+02   5.4% (8067; 80929)
Time used: 540.1 secs.  Memory used: 98.1 Mb.
+2505212: mip =   3.360000000e+02 >=   3.180000000e+02   5.4% (8143; 81774)
+2522300: mip =   3.360000000e+02 >=   3.180000000e+02   5.4% (8211; 82652)
+2540849: mip =   3.360000000e+02 >=   3.180000000e+02   5.4% (8281; 83477)
+2559600: mip =   3.360000000e+02 >=   3.180000000e+02   5.4% (8325; 84312)
+2578716: mip =   3.360000000e+02 >=   3.180000000e+02   5.4% (8387; 85033)
+2595261: mip =   3.360000000e+02 >=   3.180000000e+02   5.4% (8435; 85979)
+2615351: mip =   3.360000000e+02 >=   3.180000000e+02   5.4% (8516; 86805)
+2635870: mip =   3.360000000e+02 >=   3.180000000e+02   5.4% (8595; 87616)
+2653415: mip =   3.360000000e+02 >=   3.190000000e+02   5.1% (8475; 88947)
+2671349: mip =   3.360000000e+02 >=   3.200000000e+02   4.8% (8201; 90442)
+2690430: mip =   3.360000000e+02 >=   3.200000000e+02   4.8% (8247; 91266)
+2706025: mip =   3.360000000e+02 >=   3.200000000e+02   4.8% (8311; 92176)
Time used: 600.1 secs.  Memory used: 105.1 Mb.
+2724916: mip =   3.360000000e+02 >=   3.200000000e+02   4.8% (8363; 92996)
+2740984: mip =   3.360000000e+02 >=   3.200000000e+02   4.8% (8469; 93831)
+2760906: mip =   3.360000000e+02 >=   3.200000000e+02   4.8% (8462; 94589)
+2779274: mip =   3.360000000e+02 >=   3.200000000e+02   4.8% (8545; 95378)
+2797008: mip =   3.360000000e+02 >=   3.200000000e+02   4.8% (8636; 96184)
+2814089: mip =   3.360000000e+02 >=   3.200000000e+02   4.8% (8719; 97006)
+2832200: mip =   3.360000000e+02 >=   3.200000000e+02   4.8% (8792; 97807)
+2850747: mip =   3.360000000e+02 >=   3.200000000e+02   4.8% (8837; 98643)
+2868352: mip =   3.360000000e+02 >=   3.200000000e+02   4.8% (8904; 99633)
+2885775: mip =   3.360000000e+02 >=   3.200000000e+02   4.8% (8930; 100664)
+2903252: mip =   3.360000000e+02 >=   3.200000000e+02   4.8% (8980; 101621)
+2924846: mip =   3.360000000e+02 >=   3.200000000e+02   4.8% (9062; 102221)
Time used: 660.1 secs.  Memory used: 113.8 Mb.
+2942492: mip =   3.360000000e+02 >=   3.200000000e+02   4.8% (9135; 103079)
+2960705: mip =   3.360000000e+02 >=   3.200000000e+02   4.8% (9193; 104037)
+2977871: mip =   3.360000000e+02 >=   3.200000000e+02   4.8% (9286; 104929)
+2997931: mip =   3.360000000e+02 >=   3.200000000e+02   4.8% (9347; 105785)
+3018585: mip =   3.360000000e+02 >=   3.200000000e+02   4.8% (9427; 106494)
+3040163: mip =   3.360000000e+02 >=   3.200000000e+02   4.8% (9510; 107212)
+3061596: mip =   3.360000000e+02 >=   3.200000000e+02   4.8% (9617; 107948)
+3081341: mip =   3.360000000e+02 >=   3.200000000e+02   4.8% (9685; 108745)
+3102409: mip =   3.360000000e+02 >=   3.200000000e+02   4.8% (9680; 109583)
+3123436: mip =   3.360000000e+02 >=   3.200000000e+02   4.8% (9739; 110226)
+3141663: mip =   3.360000000e+02 >=   3.200000000e+02   4.8% (9815; 111071)
+3161315: mip =   3.360000000e+02 >=   3.200000000e+02   4.8% (9897; 111893)
Time used: 720.1 secs.  Memory used: 123.8 Mb.
+3181956: mip =   3.360000000e+02 >=   3.200000000e+02   4.8% (9960; 112671)
+3198801: mip =   3.360000000e+02 >=   3.200000000e+02   4.8% (9984; 113648)
+3216291: mip =   3.360000000e+02 >=   3.200000000e+02   4.8% (10052; 114441)
+3234989: mip =   3.360000000e+02 >=   3.200000000e+02   4.8% (10109; 115304)
+3253813: mip =   3.360000000e+02 >=   3.200000000e+02   4.8% (10169; 116176)
+3271371: mip =   3.360000000e+02 >=   3.200000000e+02   4.8% (10235; 117127)
+3290674: mip =   3.360000000e+02 >=   3.200000000e+02   4.8% (10329; 117881)
+3311553: mip =   3.360000000e+02 >=   3.200000000e+02   4.8% (10371; 118684)
+3330290: mip =   3.360000000e+02 >=   3.200000000e+02   4.8% (10452; 119468)
+3349099: mip =   3.360000000e+02 >=   3.200000000e+02   4.8% (10477; 120303)
+3367814: mip =   3.360000000e+02 >=   3.200000000e+02   4.8% (10524; 121076)
+3387576: mip =   3.360000000e+02 >=   3.200000000e+02   4.8% (10597; 121478)
Time used: 780.1 secs.  Memory used: 132.7 Mb.
+3406283: mip =   3.360000000e+02 >=   3.200000000e+02   4.8% (10664; 122327)
+3424327: mip =   3.360000000e+02 >=   3.200000000e+02   4.8% (10696; 123287)
+3440763: mip =   3.360000000e+02 >=   3.200000000e+02   4.8% (10758; 124222)
+3457852: mip =   3.360000000e+02 >=   3.200000000e+02   4.8% (10796; 125141)
+3473886: mip =   3.360000000e+02 >=   3.200000000e+02   4.8% (10881; 126000)
+3492128: mip =   3.360000000e+02 >=   3.200000000e+02   4.8% (10964; 126806)
+3510077: mip =   3.360000000e+02 >=   3.200000000e+02   4.8% (11075; 127559)
+3527904: mip =   3.360000000e+02 >=   3.200000000e+02   4.8% (11153; 128348)
+3546348: mip =   3.360000000e+02 >=   3.200000000e+02   4.8% (11193; 129223)
+3563533: mip =   3.360000000e+02 >=   3.200000000e+02   4.8% (11235; 130115)
+3580256: mip =   3.360000000e+02 >=   3.200000000e+02   4.8% (11289; 130922)
+3599991: mip =   3.360000000e+02 >=   3.200000000e+02   4.8% (11335; 131501)
Time used: 840.1 secs.  Memory used: 141.7 Mb.
+3616451: mip =   3.360000000e+02 >=   3.200000000e+02   4.8% (11375; 132362)
+3635914: mip =   3.360000000e+02 >=   3.200000000e+02   4.8% (11486; 132993)
+3653920: mip =   3.360000000e+02 >=   3.200000000e+02   4.8% (11545; 133822)
+3672954: mip =   3.360000000e+02 >=   3.200000000e+02   4.8% (11576; 134467)
+3689468: mip =   3.360000000e+02 >=   3.200000000e+02   4.8% (11681; 135170)
+3705296: mip =   3.360000000e+02 >=   3.200000000e+02   4.8% (11728; 136077)
+3724212: mip =   3.360000000e+02 >=   3.200000000e+02   4.8% (11775; 136881)
+3742633: mip =   3.360000000e+02 >=   3.200000000e+02   4.8% (11854; 137631)
+3758783: mip =   3.360000000e+02 >=   3.200000000e+02   4.8% (11924; 138392)
+3775687: mip =   3.360000000e+02 >=   3.200000000e+02   4.8% (11977; 139187)
+3792922: mip =   3.360000000e+02 >=   3.200000000e+02   4.8% (11987; 140067)
+3812533: mip =   3.360000000e+02 >=   3.200000000e+02   4.8% (12045; 140827)
Time used: 900.1 secs.  Memory used: 150.3 Mb.
+3831826: mip =   3.360000000e+02 >=   3.200000000e+02   4.8% (12116; 141454)
+3849281: mip =   3.360000000e+02 >=   3.200000000e+02   4.8% (12193; 142221)
+3866524: mip =   3.360000000e+02 >=   3.200000000e+02   4.8% (12265; 143012)
+3884480: mip =   3.360000000e+02 >=   3.200000000e+02   4.8% (12326; 143763)
+3902997: mip =   3.360000000e+02 >=   3.200000000e+02   4.8% (12362; 144542)
+3923270: mip =   3.360000000e+02 >=   3.200000000e+02   4.8% (12397; 145092)
+3941867: mip =   3.360000000e+02 >=   3.200000000e+02   4.8% (12471; 145774)
+3958752: mip =   3.360000000e+02 >=   3.200000000e+02   4.8% (12534; 146574)
+3977751: mip =   3.360000000e+02 >=   3.200000000e+02   4.8% (12598; 147309)
+3994964: mip =   3.360000000e+02 >=   3.200000000e+02   4.8% (12670; 148043)
+4011894: mip =   3.360000000e+02 >=   3.210000000e+02   4.5% (12467; 149147)
+4031994: mip =   3.360000000e+02 >=   3.210000000e+02   4.5% (12329; 150371)
Time used: 960.1 secs.  Memory used: 157.5 Mb.
+4051331: mip =   3.360000000e+02 >=   3.220000000e+02   4.2% (12170; 151451)
+4057953: mip =   3.360000000e+02 >=   3.220000000e+02   4.2% (11902; 153134)
+4065169: mip =   3.360000000e+02 >=   3.220000000e+02   4.2% (11762; 154613)
+4073682: mip =   3.360000000e+02 >=   3.220000000e+02   4.2% (11631; 156099)
+4084293: mip =   3.360000000e+02 >=   3.220000000e+02   4.2% (11346; 158241)
+4100441: mip =   3.360000000e+02 >=   3.220000000e+02   4.2% (11386; 159144)
+4117298: mip =   3.360000000e+02 >=   3.220000000e+02   4.2% (11467; 159920)
+4134153: mip =   3.360000000e+02 >=   3.220000000e+02   4.2% (11525; 160798)
+4147494: mip =   3.360000000e+02 >=   3.220000000e+02   4.2% (11616; 161682)
+4161209: mip =   3.360000000e+02 >=   3.220000000e+02   4.2% (11670; 162576)
+4178393: mip =   3.360000000e+02 >=   3.220000000e+02   4.2% (11729; 163383)
+4195778: mip =   3.360000000e+02 >=   3.220000000e+02   4.2% (11776; 164179)
Time used: 1020.1 secs.  Memory used: 157.5 Mb.
+4213472: mip =   3.360000000e+02 >=   3.220000000e+02   4.2% (11813; 164991)
+4235453: mip =   3.360000000e+02 >=   3.220000000e+02   4.2% (11877; 165537)
+4251689: mip =   3.360000000e+02 >=   3.220000000e+02   4.2% (11940; 166420)
+4273199: mip =   3.360000000e+02 >=   3.220000000e+02   4.2% (12003; 166976)
+4295924: mip =   3.360000000e+02 >=   3.220000000e+02   4.2% (12182; 167383)
+4320043: mip =   3.360000000e+02 >=   3.220000000e+02   4.2% (12254; 167828)
+4341007: mip =   3.360000000e+02 >=   3.220000000e+02   4.2% (12377; 168351)
+4356512: mip =   3.360000000e+02 >=   3.220000000e+02   4.2% (12439; 169180)
+4374687: mip =   3.360000000e+02 >=   3.220000000e+02   4.2% (12475; 169964)
+4390606: mip =   3.360000000e+02 >=   3.220000000e+02   4.2% (12522; 170786)
+4408511: mip =   3.360000000e+02 >=   3.220000000e+02   4.2% (12556; 171570)
+4431611: mip =   3.360000000e+02 >=   3.220000000e+02   4.2% (12700; 172054)
Time used: 1080.1 secs.  Memory used: 163.0 Mb.
+4446236: mip =   3.360000000e+02 >=   3.220000000e+02   4.2% (12783; 172885)
+4462213: mip =   3.360000000e+02 >=   3.220000000e+02   4.2% (12828; 173697)
+4478615: mip =   3.360000000e+02 >=   3.220000000e+02   4.2% (12873; 174526)
+4495276: mip =   3.360000000e+02 >=   3.220000000e+02   4.2% (12956; 175233)
+4509438: mip =   3.360000000e+02 >=   3.220000000e+02   4.2% (13040; 176000)
+4529665: mip =   3.360000000e+02 >=   3.220000000e+02   4.2% (13127; 176486)
+4555100: mip =   3.360000000e+02 >=   3.220000000e+02   4.2% (13265; 176768)
+4577353: mip =   3.360000000e+02 >=   3.220000000e+02   4.2% (13385; 177234)
+4600810: mip =   3.360000000e+02 >=   3.220000000e+02   4.2% (13524; 177581)
+4616536: mip =   3.360000000e+02 >=   3.220000000e+02   4.2% (13586; 178352)
+4633968: mip =   3.360000000e+02 >=   3.220000000e+02   4.2% (13610; 179104)
+4650897: mip =   3.360000000e+02 >=   3.220000000e+02   4.2% (13656; 179875)
Time used: 1140.1 secs.  Memory used: 172.8 Mb.
+4665631: mip =   3.360000000e+02 >=   3.220000000e+02   4.2% (13753; 180567)
+4679310: mip =   3.360000000e+02 >=   3.220000000e+02   4.2% (13814; 181357)
+4701890: mip =   3.360000000e+02 >=   3.220000000e+02   4.2% (13921; 181791)
+4721928: mip =   3.360000000e+02 >=   3.220000000e+02   4.2% (14017; 182335)
+4742291: mip =   3.360000000e+02 >=   3.220000000e+02   4.2% (14105; 182786)
+4757388: mip =   3.360000000e+02 >=   3.220000000e+02   4.2% (14160; 183616)
+4771523: mip =   3.360000000e+02 >=   3.220000000e+02   4.2% (14190; 184463)
+4785030: mip =   3.360000000e+02 >=   3.220000000e+02   4.2% (14268; 185222)
+4800080: mip =   3.360000000e+02 >=   3.220000000e+02   4.2% (14320; 186063)
+4818901: mip =   3.360000000e+02 >=   3.220000000e+02   4.2% (14408; 186693)
+4842001: mip =   3.360000000e+02 >=   3.220000000e+02   4.2% (14565; 187055)
+4867771: mip =   3.360000000e+02 >=   3.220000000e+02   4.2% (14702; 187314)
Time used: 1200.1 secs.  Memory used: 183.1 Mb.
+4892473: mip =   3.360000000e+02 >=   3.220000000e+02   4.2% (14748; 187681)
+4916228: mip =   3.360000000e+02 >=   3.220000000e+02   4.2% (14816; 188051)
+4939942: mip =   3.360000000e+02 >=   3.220000000e+02   4.2% (14915; 188403)
+4964879: mip =   3.360000000e+02 >=   3.220000000e+02   4.2% (15023; 188713)
+4982406: mip =   3.360000000e+02 >=   3.220000000e+02   4.2% (15094; 189359)
+4997625: mip =   3.360000000e+02 >=   3.220000000e+02   4.2% (15124; 190152)
+5012719: mip =   3.360000000e+02 >=   3.220000000e+02   4.2% (15153; 190933)
+5026673: mip =   3.360000000e+02 >=   3.220000000e+02   4.2% (15243; 191641)
+5046132: mip =   3.360000000e+02 >=   3.220000000e+02   4.2% (15293; 192194)
+5069134: mip =   3.360000000e+02 >=   3.220000000e+02   4.2% (15398; 192564)
+5090838: mip =   3.360000000e+02 >=   3.220000000e+02   4.2% (15449; 193037)
+5106495: mip =   3.360000000e+02 >=   3.220000000e+02   4.2% (15557; 193659)
Time used: 1260.1 secs.  Memory used: 192.4 Mb.
+5120818: mip =   3.360000000e+02 >=   3.220000000e+02   4.2% (15632; 194322)
+5137242: mip =   3.360000000e+02 >=   3.220000000e+02   4.2% (15644; 195085)
+5148233: mip =   3.360000000e+02 >=   3.220000000e+02   4.2% (15687; 195902)
+5162780: mip =   3.360000000e+02 >=   3.220000000e+02   4.2% (15728; 196667)
+5178555: mip =   3.360000000e+02 >=   3.220000000e+02   4.2% (15765; 197392)
+5197236: mip =   3.360000000e+02 >=   3.220000000e+02   4.2% (15921; 197881)
+5218738: mip =   3.360000000e+02 >=   3.220000000e+02   4.2% (16019; 198324)
+5243265: mip =   3.360000000e+02 >=   3.220000000e+02   4.2% (16101; 198643)
+5257584: mip =   3.360000000e+02 >=   3.220000000e+02   4.2% (16198; 199309)
+5271110: mip =   3.360000000e+02 >=   3.220000000e+02   4.2% (16279; 200052)
+5284872: mip =   3.360000000e+02 >=   3.220000000e+02   4.2% (16330; 200758)
+5298489: mip =   3.360000000e+02 >=   3.220000000e+02   4.2% (16406; 201420)
Time used: 1320.1 secs.  Memory used: 201.4 Mb.
+5311672: mip =   3.360000000e+02 >=   3.220000000e+02   4.2% (16461; 202157)
+5327907: mip =   3.360000000e+02 >=   3.220000000e+02   4.2% (16540; 202775)
+5344906: mip =   3.360000000e+02 >=   3.220000000e+02   4.2% (16574; 203458)
+5369280: mip =   3.360000000e+02 >=   3.220000000e+02   4.2% (16741; 203709)
+5390340: mip =   3.360000000e+02 >=   3.220000000e+02   4.2% (16830; 204089)
+5411728: mip =   3.360000000e+02 >=   3.220000000e+02   4.2% (16906; 204459)
+5428397: mip =   3.360000000e+02 >=   3.220000000e+02   4.2% (16938; 205044)
+5441998: mip =   3.360000000e+02 >=   3.220000000e+02   4.2% (16942; 205814)
+5454693: mip =   3.360000000e+02 >=   3.220000000e+02   4.2% (17041; 206519)
+5467783: mip =   3.360000000e+02 >=   3.220000000e+02   4.2% (17086; 207242)
+5478786: mip =   3.360000000e+02 >=   3.220000000e+02   4.2% (17101; 208050)
+5491786: mip =   3.360000000e+02 >=   3.220000000e+02   4.2% (17144; 208801)
Time used: 1380.1 secs.  Memory used: 209.2 Mb.
+5506898: mip =   3.360000000e+02 >=   3.220000000e+02   4.2% (17222; 209444)
+5520337: mip =   3.360000000e+02 >=   3.220000000e+02   4.2% (17257; 210168)
+5532872: mip =   3.360000000e+02 >=   3.220000000e+02   4.2% (17284; 210927)
+5545749: mip =   3.360000000e+02 >=   3.220000000e+02   4.2% (17306; 211678)
+5558345: mip =   3.360000000e+02 >=   3.220000000e+02   4.2% (17346; 212411)
+5569580: mip =   3.360000000e+02 >=   3.220000000e+02   4.2% (17397; 213115)
+5588071: mip =   3.360000000e+02 >=   3.220000000e+02   4.2% (17476; 213611)
+5613282: mip =   3.360000000e+02 >=   3.220000000e+02   4.2% (17592; 213785)
+5636658: mip =   3.360000000e+02 >=   3.220000000e+02   4.2% (17732; 214057)
+5658253: mip =   3.360000000e+02 >=   3.220000000e+02   4.2% (17802; 214408)
+5676868: mip =   3.360000000e+02 >=   3.220000000e+02   4.2% (17873; 214919)
+5690756: mip =   3.360000000e+02 >=   3.220000000e+02   4.2% (17905; 215606)
Time used: 1440.1 secs.  Memory used: 219.1 Mb.
+5706245: mip =   3.360000000e+02 >=   3.220000000e+02   4.2% (17973; 216252)
+5719924: mip =   3.360000000e+02 >=   3.220000000e+02   4.2% (17974; 216989)
+5734676: mip =   3.360000000e+02 >=   3.220000000e+02   4.2% (18031; 217675)
+5747706: mip =   3.360000000e+02 >=   3.220000000e+02   4.2% (18075; 218332)
+5763270: mip =   3.360000000e+02 >=   3.220000000e+02   4.2% (18148; 218977)
+5778133: mip =   3.360000000e+02 >=   3.220000000e+02   4.2% (18163; 219689)
+5792989: mip =   3.360000000e+02 >=   3.220000000e+02   4.2% (18200; 220373)
+5807970: mip =   3.360000000e+02 >=   3.220000000e+02   4.2% (18250; 220979)
+5824213: mip =   3.360000000e+02 >=   3.220000000e+02   4.2% (18322; 221492)
+5845646: mip =   3.360000000e+02 >=   3.220000000e+02   4.2% (18457; 221804)
+5858711: mip =   3.360000000e+02 >=   3.220000000e+02   4.2% (18534; 222452)
+5872868: mip =   3.360000000e+02 >=   3.220000000e+02   4.2% (18604; 222982)
Time used: 1500.1 secs.  Memory used: 226.7 Mb.
+5886230: mip =   3.360000000e+02 >=   3.220000000e+02   4.2% (18641; 223662)
+5901919: mip =   3.360000000e+02 >=   3.220000000e+02   4.2% (18666; 224339)
+5915860: mip =   3.360000000e+02 >=   3.220000000e+02   4.2% (18695; 225009)
+5932181: mip =   3.360000000e+02 >=   3.220000000e+02   4.2% (18722; 225666)
+5951265: mip =   3.360000000e+02 >=   3.220000000e+02   4.2% (18790; 226095)
+5975265: mip =   3.360000000e+02 >=   3.220000000e+02   4.2% (18891; 226392)
+5998082: mip =   3.360000000e+02 >=   3.220000000e+02   4.2% (19006; 226686)
+6019462: mip =   3.360000000e+02 >=   3.220000000e+02   4.2% (19108; 227042)
+6031434: mip =   3.360000000e+02 >=   3.220000000e+02   4.2% (19181; 227708)
+6045016: mip =   3.360000000e+02 >=   3.220000000e+02   4.2% (19238; 228297)
+6057819: mip =   3.360000000e+02 >=   3.220000000e+02   4.2% (19302; 228936)
+6069462: mip =   3.360000000e+02 >=   3.220000000e+02   4.2% (19332; 229659)
Time used: 1560.1 secs.  Memory used: 234.9 Mb.
+6083998: mip =   3.360000000e+02 >=   3.220000000e+02   4.2% (19343; 230342)
+6106187: mip =   3.360000000e+02 >=   3.220000000e+02   4.2% (19438; 230642)
+6127865: mip =   3.360000000e+02 >=   3.220000000e+02   4.2% (19549; 230981)
+6141555: mip =   3.360000000e+02 >=   3.220000000e+02   4.2% (19627; 231561)
+6151169: mip =   3.360000000e+02 >=   3.220000000e+02   4.2% (19667; 232310)
+6165547: mip =   3.360000000e+02 >=   3.220000000e+02   4.2% (19724; 232917)
+6179962: mip =   3.360000000e+02 >=   3.220000000e+02   4.2% (19762; 233561)
+6194819: mip =   3.360000000e+02 >=   3.220000000e+02   4.2% (19809; 234189)
+6209394: mip =   3.360000000e+02 >=   3.220000000e+02   4.2% (19847; 234826)
+6230828: mip =   3.360000000e+02 >=   3.220000000e+02   4.2% (19901; 235211)
+6252880: mip =   3.360000000e+02 >=   3.220000000e+02   4.2% (20026; 235514)
+6272469: mip =   3.360000000e+02 >=   3.220000000e+02   4.2% (20102; 235907)
Time used: 1620.2 secs.  Memory used: 242.6 Mb.
+6287508: mip =   3.360000000e+02 >=   3.220000000e+02   4.2% (20134; 236456)
+6302919: mip =   3.360000000e+02 >=   3.220000000e+02   4.2% (20136; 237094)
+6316344: mip =   3.360000000e+02 >=   3.220000000e+02   4.2% (20187; 237728)
+6327661: mip =   3.360000000e+02 >=   3.220000000e+02   4.2% (20219; 238453)
+6338853: mip =   3.360000000e+02 >=   3.220000000e+02   4.2% (20249; 239172)
+6350838: mip =   3.360000000e+02 >=   3.220000000e+02   4.2% (20334; 239736)
+6361648: mip =   3.360000000e+02 >=   3.220000000e+02   4.2% (20361; 240426)
+6376743: mip =   3.360000000e+02 >=   3.220000000e+02   4.2% (20416; 241014)
+6388947: mip =   3.360000000e+02 >=   3.220000000e+02   4.2% (20482; 241655)
+6398719: mip =   3.360000000e+02 >=   3.220000000e+02   4.2% (20526; 242323)
+6409868: mip =   3.360000000e+02 >=   3.220000000e+02   4.2% (20564; 243018)
+6421382: mip =   3.360000000e+02 >=   3.220000000e+02   4.2% (20656; 243603)
Time used: 1680.2 secs.  Memory used: 249.4 Mb.
+6432455: mip =   3.360000000e+02 >=   3.220000000e+02   4.2% (20706; 244260)
+6442775: mip =   3.360000000e+02 >=   3.220000000e+02   4.2% (20742; 245001)
+6455274: mip =   3.360000000e+02 >=   3.220000000e+02   4.2% (20765; 245670)
+6467215: mip =   3.360000000e+02 >=   3.220000000e+02   4.2% (20788; 246371)
+6478985: mip =   3.360000000e+02 >=   3.220000000e+02   4.2% (20847; 247018)
+6491906: mip =   3.360000000e+02 >=   3.220000000e+02   4.2% (20871; 247684)
+6503122: mip =   3.360000000e+02 >=   3.220000000e+02   4.2% (20920; 248355)
+6514190: mip =   3.360000000e+02 >=   3.220000000e+02   4.2% (20951; 249004)
+6526896: mip =   3.360000000e+02 >=   3.220000000e+02   4.2% (21008; 249622)
+6546903: mip =   3.360000000e+02 >=   3.220000000e+02   4.2% (21137; 249981)
+6569755: mip =   3.360000000e+02 >=   3.220000000e+02   4.2% (21261; 250196)
+6591740: mip =   3.360000000e+02 >=   3.220000000e+02   4.2% (21399; 250428)
Time used: 1740.2 secs.  Memory used: 257.7 Mb.
+6609553: mip =   3.360000000e+02 >=   3.220000000e+02   4.2% (21451; 250817)
+6624135: mip =   3.360000000e+02 >=   3.220000000e+02   4.2% (21555; 251309)
+6635163: mip =   3.360000000e+02 >=   3.220000000e+02   4.2% (21629; 251922)
+6646127: mip =   3.360000000e+02 >=   3.220000000e+02   4.2% (21665; 252599)
+6658213: mip =   3.360000000e+02 >=   3.220000000e+02   4.2% (21707; 253182)
+6669799: mip =   3.360000000e+02 >=   3.220000000e+02   4.2% (21751; 253832)
+6681946: mip =   3.360000000e+02 >=   3.220000000e+02   4.2% (21806; 254464)
+6694590: mip =   3.360000000e+02 >=   3.220000000e+02   4.2% (21837; 255078)
+6709621: mip =   3.360000000e+02 >=   3.220000000e+02   4.2% (21865; 255627)
+6729834: mip =   3.360000000e+02 >=   3.220000000e+02   4.2% (21996; 255963)
+6753439: mip =   3.360000000e+02 >=   3.220000000e+02   4.2% (22109; 256193)
